p cnf 30 864
0 0
6 0
10 16 15 11 0
10 16 15 -11 0
10 16 -15 11 0
10 -16 15 11 0
10 -16 15 -11 0
10 -16 -15 11 0
-10 16 15 11 0
-10 16 15 -11 0
-10 16 -15 11 0
0 0
7 0
10 17 15 12 0
10 17 15 -12 0
10 17 -15 12 0
10 -17 15 12 0
10 -17 15 -12 0
10 -17 -15 12 0
-10 17 15 12 0
-10 17 15 -12 0
-10 17 -15 12 0
0 0
8 0
10 18 15 13 0
10 18 15 -13 0
10 18 -15 13 0
10 -18 15 13 0
10 -18 15 -13 0
10 -18 -15 13 0
-10 18 15 13 0
-10 18 15 -13 0
-10 18 -15 13 0
0 0
9 0
10 19 15 14 0
10 19 15 -14 0
10 19 -15 14 0
10 -19 15 14 0
10 -19 15 -14 0
10 -19 -15 14 0
-10 19 15 14 0
-10 19 15 -14 0
-10 19 -15 14 0
1 0
5 0
11 15 16 10 0
11 15 16 -10 0
11 15 -16 10 0
11 -15 16 10 0
11 -15 16 -10 0
11 -15 -16 10 0
-11 15 16 10 0
-11 15 16 -10 0
-11 15 -16 10 0
1 0
7 0
11 17 16 12 0
11 17 16 -12 0
11 17 -16 12 0
11 -17 16 12 0
11 -17 16 -12 0
11 -17 -16 12 0
-11 17 16 12 0
-11 17 16 -12 0
-11 17 -16 12 0
1 0
8 0
11 18 16 13 0
11 18 16 -13 0
11 18 -16 13 0
11 -18 16 13 0
11 -18 16 -13 0
11 -18 -16 13 0
-11 18 16 13 0
-11 18 16 -13 0
-11 18 -16 13 0
1 0
9 0
11 19 16 14 0
11 19 16 -14 0
11 19 -16 14 0
11 -19 16 14 0
11 -19 16 -14 0
11 -19 -16 14 0
-11 19 16 14 0
-11 19 16 -14 0
-11 19 -16 14 0
2 0
5 0
12 15 17 10 0
12 15 17 -10 0
12 15 -17 10 0
12 -15 17 10 0
12 -15 17 -10 0
12 -15 -17 10 0
-12 15 17 10 0
-12 15 17 -10 0
-12 15 -17 10 0
2 0
6 0
12 16 17 11 0
12 16 17 -11 0
12 16 -17 11 0
12 -16 17 11 0
12 -16 17 -11 0
12 -16 -17 11 0
-12 16 17 11 0
-12 16 17 -11 0
-12 16 -17 11 0
2 0
8 0
12 18 17 13 0
12 18 17 -13 0
12 18 -17 13 0
12 -18 17 13 0
12 -18 17 -13 0
12 -18 -17 13 0
-12 18 17 13 0
-12 18 17 -13 0
-12 18 -17 13 0
2 0
9 0
12 19 17 14 0
12 19 17 -14 0
12 19 -17 14 0
12 -19 17 14 0
12 -19 17 -14 0
12 -19 -17 14 0
-12 19 17 14 0
-12 19 17 -14 0
-12 19 -17 14 0
3 0
5 0
13 15 18 10 0
13 15 18 -10 0
13 15 -18 10 0
13 -15 18 10 0
13 -15 18 -10 0
13 -15 -18 10 0
-13 15 18 10 0
-13 15 18 -10 0
-13 15 -18 10 0
3 0
6 0
13 16 18 11 0
13 16 18 -11 0
13 16 -18 11 0
13 -16 18 11 0
13 -16 18 -11 0
13 -16 -18 11 0
-13 16 18 11 0
-13 16 18 -11 0
-13 16 -18 11 0
3 0
7 0
13 17 18 12 0
13 17 18 -12 0
13 17 -18 12 0
13 -17 18 12 0
13 -17 18 -12 0
13 -17 -18 12 0
-13 17 18 12 0
-13 17 18 -12 0
-13 17 -18 12 0
3 0
9 0
13 19 18 14 0
13 19 18 -14 0
13 19 -18 14 0
13 -19 18 14 0
13 -19 18 -14 0
13 -19 -18 14 0
-13 19 18 14 0
-13 19 18 -14 0
-13 19 -18 14 0
4 0
5 0
14 15 19 10 0
14 15 19 -10 0
14 15 -19 10 0
14 -15 19 10 0
14 -15 19 -10 0
14 -15 -19 10 0
-14 15 19 10 0
-14 15 19 -10 0
-14 15 -19 10 0
4 0
6 0
14 16 19 11 0
14 16 19 -11 0
14 16 -19 11 0
14 -16 19 11 0
14 -16 19 -11 0
14 -16 -19 11 0
-14 16 19 11 0
-14 16 19 -11 0
-14 16 -19 11 0
4 0
7 0
14 17 19 12 0
14 17 19 -12 0
14 17 -19 12 0
14 -17 19 12 0
14 -17 19 -12 0
14 -17 -19 12 0
-14 17 19 12 0
-14 17 19 -12 0
-14 17 -19 12 0
4 0
8 0
14 18 19 13 0
14 18 19 -13 0
14 18 -19 13 0
14 -18 19 13 0
14 -18 19 -13 0
14 -18 -19 13 0
-14 18 19 13 0
-14 18 19 -13 0
-14 18 -19 13 0
0 0
6 0
20 26 25 21 0
20 26 25 -21 0
20 26 -25 21 0
20 -26 25 21 0
20 -26 25 -21 0
20 -26 -25 21 0
-20 26 25 21 0
-20 26 25 -21 0
-20 26 -25 21 0
0 0
7 0
20 27 25 22 0
20 27 25 -22 0
20 27 -25 22 0
20 -27 25 22 0
20 -27 25 -22 0
20 -27 -25 22 0
-20 27 25 22 0
-20 27 25 -22 0
-20 27 -25 22 0
0 0
8 0
20 28 25 23 0
20 28 25 -23 0
20 28 -25 23 0
20 -28 25 23 0
20 -28 25 -23 0
20 -28 -25 23 0
-20 28 25 23 0
-20 28 25 -23 0
-20 28 -25 23 0
0 0
9 0
20 29 25 24 0
20 29 25 -24 0
20 29 -25 24 0
20 -29 25 24 0
20 -29 25 -24 0
20 -29 -25 24 0
-20 29 25 24 0
-20 29 25 -24 0
-20 29 -25 24 0
1 0
5 0
21 25 26 20 0
21 25 26 -20 0
21 25 -26 20 0
21 -25 26 20 0
21 -25 26 -20 0
21 -25 -26 20 0
-21 25 26 20 0
-21 25 26 -20 0
-21 25 -26 20 0
1 0
7 0
21 27 26 22 0
21 27 26 -22 0
21 27 -26 22 0
21 -27 26 22 0
21 -27 26 -22 0
21 -27 -26 22 0
-21 27 26 22 0
-21 27 26 -22 0
-21 27 -26 22 0
1 0
8 0
21 28 26 23 0
21 28 26 -23 0
21 28 -26 23 0
21 -28 26 23 0
21 -28 26 -23 0
21 -28 -26 23 0
-21 28 26 23 0
-21 28 26 -23 0
-21 28 -26 23 0
1 0
9 0
21 29 26 24 0
21 29 26 -24 0
21 29 -26 24 0
21 -29 26 24 0
21 -29 26 -24 0
21 -29 -26 24 0
-21 29 26 24 0
-21 29 26 -24 0
-21 29 -26 24 0
2 0
5 0
22 25 27 20 0
22 25 27 -20 0
22 25 -27 20 0
22 -25 27 20 0
22 -25 27 -20 0
22 -25 -27 20 0
-22 25 27 20 0
-22 25 27 -20 0
-22 25 -27 20 0
2 0
6 0
22 26 27 21 0
22 26 27 -21 0
22 26 -27 21 0
22 -26 27 21 0
22 -26 27 -21 0
22 -26 -27 21 0
-22 26 27 21 0
-22 26 27 -21 0
-22 26 -27 21 0
2 0
8 0
22 28 27 23 0
22 28 27 -23 0
22 28 -27 23 0
22 -28 27 23 0
22 -28 27 -23 0
22 -28 -27 23 0
-22 28 27 23 0
-22 28 27 -23 0
-22 28 -27 23 0
2 0
9 0
22 29 27 24 0
22 29 27 -24 0
22 29 -27 24 0
22 -29 27 24 0
22 -29 27 -24 0
22 -29 -27 24 0
-22 29 27 24 0
-22 29 27 -24 0
-22 29 -27 24 0
3 0
5 0
23 25 28 20 0
23 25 28 -20 0
23 25 -28 20 0
23 -25 28 20 0
23 -25 28 -20 0
23 -25 -28 20 0
-23 25 28 20 0
-23 25 28 -20 0
-23 25 -28 20 0
3 0
6 0
23 26 28 21 0
23 26 28 -21 0
23 26 -28 21 0
23 -26 28 21 0
23 -26 28 -21 0
23 -26 -28 21 0
-23 26 28 21 0
-23 26 28 -21 0
-23 26 -28 21 0
3 0
7 0
23 27 28 22 0
23 27 28 -22 0
23 27 -28 22 0
23 -27 28 22 0
23 -27 28 -22 0
23 -27 -28 22 0
-23 27 28 22 0
-23 27 28 -22 0
-23 27 -28 22 0
3 0
9 0
23 29 28 24 0
23 29 28 -24 0
23 29 -28 24 0
23 -29 28 24 0
23 -29 28 -24 0
23 -29 -28 24 0
-23 29 28 24 0
-23 29 28 -24 0
-23 29 -28 24 0
4 0
5 0
24 25 29 20 0
24 25 29 -20 0
24 25 -29 20 0
24 -25 29 20 0
24 -25 29 -20 0
24 -25 -29 20 0
-24 25 29 20 0
-24 25 29 -20 0
-24 25 -29 20 0
4 0
6 0
24 26 29 21 0
24 26 29 -21 0
24 26 -29 21 0
24 -26 29 21 0
24 -26 29 -21 0
24 -26 -29 21 0
-24 26 29 21 0
-24 26 29 -21 0
-24 26 -29 21 0
4 0
7 0
24 27 29 22 0
24 27 29 -22 0
24 27 -29 22 0
24 -27 29 22 0
24 -27 29 -22 0
24 -27 -29 22 0
-24 27 29 22 0
-24 27 29 -22 0
-24 27 -29 22 0
4 0
8 0
24 28 29 23 0
24 28 29 -23 0
24 28 -29 23 0
24 -28 29 23 0
24 -28 29 -23 0
24 -28 -29 23 0
-24 28 29 23 0
-24 28 29 -23 0
-24 28 -29 23 0
10 0
16 0
20 26 25 21 0
20 26 25 -21 0
20 26 -25 21 0
20 -26 25 21 0
20 -26 25 -21 0
20 -26 -25 21 0
-20 26 25 21 0
-20 26 25 -21 0
-20 26 -25 21 0
10 0
17 0
20 27 25 22 0
20 27 25 -22 0
20 27 -25 22 0
20 -27 25 22 0
20 -27 25 -22 0
20 -27 -25 22 0
-20 27 25 22 0
-20 27 25 -22 0
-20 27 -25 22 0
10 0
18 0
20 28 25 23 0
20 28 25 -23 0
20 28 -25 23 0
20 -28 25 23 0
20 -28 25 -23 0
20 -28 -25 23 0
-20 28 25 23 0
-20 28 25 -23 0
-20 28 -25 23 0
10 0
19 0
20 29 25 24 0
20 29 25 -24 0
20 29 -25 24 0
20 -29 25 24 0
20 -29 25 -24 0
20 -29 -25 24 0
-20 29 25 24 0
-20 29 25 -24 0
-20 29 -25 24 0
11 0
15 0
21 25 26 20 0
21 25 26 -20 0
21 25 -26 20 0
21 -25 26 20 0
21 -25 26 -20 0
21 -25 -26 20 0
-21 25 26 20 0
-21 25 26 -20 0
-21 25 -26 20 0
11 0
17 0
21 27 26 22 0
21 27 26 -22 0
21 27 -26 22 0
21 -27 26 22 0
21 -27 26 -22 0
21 -27 -26 22 0
-21 27 26 22 0
-21 27 26 -22 0
-21 27 -26 22 0
11 0
18 0
21 28 26 23 0
21 28 26 -23 0
21 28 -26 23 0
21 -28 26 23 0
21 -28 26 -23 0
21 -28 -26 23 0
-21 28 26 23 0
-21 28 26 -23 0
-21 28 -26 23 0
11 0
19 0
21 29 26 24 0
21 29 26 -24 0
21 29 -26 24 0
21 -29 26 24 0
21 -29 26 -24 0
21 -29 -26 24 0
-21 29 26 24 0
-21 29 26 -24 0
-21 29 -26 24 0
12 0
15 0
22 25 27 20 0
22 25 27 -20 0
22 25 -27 20 0
22 -25 27 20 0
22 -25 27 -20 0
22 -25 -27 20 0
-22 25 27 20 0
-22 25 27 -20 0
-22 25 -27 20 0
12 0
16 0
22 26 27 21 0
22 26 27 -21 0
22 26 -27 21 0
22 -26 27 21 0
22 -26 27 -21 0
22 -26 -27 21 0
-22 26 27 21 0
-22 26 27 -21 0
-22 26 -27 21 0
12 0
18 0
22 28 27 23 0
22 28 27 -23 0
22 28 -27 23 0
22 -28 27 23 0
22 -28 27 -23 0
22 -28 -27 23 0
-22 28 27 23 0
-22 28 27 -23 0
-22 28 -27 23 0
12 0
19 0
22 29 27 24 0
22 29 27 -24 0
22 29 -27 24 0
22 -29 27 24 0
22 -29 27 -24 0
22 -29 -27 24 0
-22 29 27 24 0
-22 29 27 -24 0
-22 29 -27 24 0
13 0
15 0
23 25 28 20 0
23 25 28 -20 0
23 25 -28 20 0
23 -25 28 20 0
23 -25 28 -20 0
23 -25 -28 20 0
-23 25 28 20 0
-23 25 28 -20 0
-23 25 -28 20 0
13 0
16 0
23 26 28 21 0
23 26 28 -21 0
23 26 -28 21 0
23 -26 28 21 0
23 -26 28 -21 0
23 -26 -28 21 0
-23 26 28 21 0
-23 26 28 -21 0
-23 26 -28 21 0
13 0
17 0
23 27 28 22 0
23 27 28 -22 0
23 27 -28 22 0
23 -27 28 22 0
23 -27 28 -22 0
23 -27 -28 22 0
-23 27 28 22 0
-23 27 28 -22 0
-23 27 -28 22 0
13 0
19 0
23 29 28 24 0
23 29 28 -24 0
23 29 -28 24 0
23 -29 28 24 0
23 -29 28 -24 0
23 -29 -28 24 0
-23 29 28 24 0
-23 29 28 -24 0
-23 29 -28 24 0
14 0
15 0
24 25 29 20 0
24 25 29 -20 0
24 25 -29 20 0
24 -25 29 20 0
24 -25 29 -20 0
24 -25 -29 20 0
-24 25 29 20 0
-24 25 29 -20 0
-24 25 -29 20 0
14 0
16 0
24 26 29 21 0
24 26 29 -21 0
24 26 -29 21 0
24 -26 29 21 0
24 -26 29 -21 0
24 -26 -29 21 0
-24 26 29 21 0
-24 26 29 -21 0
-24 26 -29 21 0
14 0
17 0
24 27 29 22 0
24 27 29 -22 0
24 27 -29 22 0
24 -27 29 22 0
24 -27 29 -22 0
24 -27 -29 22 0
-24 27 29 22 0
-24 27 29 -22 0
-24 27 -29 22 0
14 0
18 0
24 28 29 23 0
24 28 29 -23 0
24 28 -29 23 0
24 -28 29 23 0
24 -28 29 -23 0
24 -28 -29 23 0
-24 28 29 23 0
-24 28 29 -23 0
-24 28 -29 23 0
0 -10 0
-1 -11 0
-2 -12 0
-3 -13 0
-4 -14 0
0 -15 0
-1 -16 0
-2 -17 0
-3 -18 0
-4 -19 0
-5 -10 0
-6 -11 0
-7 -12 0
-8 -13 0
-9 -14 0
-5 -15 0
-6 -16 0
-7 -17 0
-8 -18 0
-9 -19 0
0 -20 0
-1 -21 0
-2 -22 0
-3 -23 0
-4 -24 0
0 -25 0
-1 -26 0
-2 -27 0
-3 -28 0
-4 -29 0
-5 -20 0
-6 -21 0
-7 -22 0
-8 -23 0
-9 -24 0
-5 -25 0
-6 -26 0
-7 -27 0
-8 -28 0
-9 -29 0
-10 0 0
-11 -1 0
-12 -2 0
-13 -3 0
-14 -4 0
-10 -5 0
-11 -6 0
-12 -7 0
-13 -8 0
-14 -9 0
-15 0 0
-16 -1 0
-17 -2 0
-18 -3 0
-19 -4 0
-15 -5 0
-16 -6 0
-17 -7 0
-18 -8 0
-19 -9 0
-10 -20 0
-11 -21 0
-12 -22 0
-13 -23 0
-14 -24 0
-10 -25 0
-11 -26 0
-12 -27 0
-13 -28 0
-14 -29 0
-15 -20 0
-16 -21 0
-17 -22 0
-18 -23 0
-19 -24 0
-15 -25 0
-16 -26 0
-17 -27 0
-18 -28 0
-19 -29 0
-20 0 0
-21 -1 0
-22 -2 0
-23 -3 0
-24 -4 0
-20 -5 0
-21 -6 0
-22 -7 0
-23 -8 0
-24 -9 0
-25 0 0
-26 -1 0
-27 -2 0
-28 -3 0
-29 -4 0
-25 -5 0
-26 -6 0
-27 -7 0
-28 -8 0
-29 -9 0
-20 -10 0
-21 -11 0
-22 -12 0
-23 -13 0
-24 -14 0
-20 -15 0
-21 -16 0
-22 -17 0
-23 -18 0
-24 -19 0
-25 -10 0
-26 -11 0
-27 -12 0
-28 -13 0
-29 -14 0
-25 -15 0
-26 -16 0
-27 -17 0
-28 -18 0
-29 -19 0
0 -25 0
-1 -26 0
-2 -27 0
-3 -28 0
-4 -29 0
-10 -25 0
-11 -26 0
-12 -27 0
-13 -28 0
-14 -29 0
-20 -25 0
-21 -26 0
-22 -27 0
-23 -28 0
-24 -29 0
-5 -20 0
-6 -21 0
-7 -22 0
-8 -23 0
-9 -24 0
-15 -20 0
-16 -21 0
-17 -22 0
-18 -23 0
-19 -24 0
-25 -20 0
-26 -21 0
-27 -22 0
-28 -23 0
-29 -24 0
0 -5 0
-1 -6 0
-2 -7 0
-3 -8 0
-4 -9 0
-10 -15 0
-11 -16 0
-12 -17 0
-13 -18 0
-14 -19 0
-20 -25 0
-21 -26 0
-22 -27 0
-23 -28 0
-24 -29 0
-5 0 0
-6 -1 0
-7 -2 0
-8 -3 0
-9 -4 0
-15 -10 0
-16 -11 0
-17 -12 0
-18 -13 0
-19 -14 0
-25 -20 0
-26 -21 0
-27 -22 0
-28 -23 0
-29 -24 0
0 -1 0
-5 -6 0
-10 -11 0
-15 -16 0
-20 -21 0
-25 -26 0
-1 -2 0
-6 -7 0
-11 -12 0
-16 -17 0
-21 -22 0
-26 -27 0
-2 -3 0
-7 -8 0
-12 -13 0
-17 -18 0
-22 -23 0
-27 -28 0
-3 -4 0
-8 -9 0
-13 -14 0
-18 -19 0
-23 -24 0
-28 -29 0
